
se = 40; % nombre de sessions
gr = 20; % nombre de grups de treball
cl = 7; % nombre de slots
minPapersPerSlot = 3; % minim nombre d'articles per sessio i slot
maxSesionsPar = 14; % maxim nombre de sessions paraleles

npMax = [4, 6, 4, 5, 6, 3, 4]; % nombre maxim de papers per slot

np = [3, 3, 5, 11, 3, 7, 14, 4, 3, 12, 15, 3, 3, 3, 16, 13, 14, 15, 3, 10, 10, 13, 4, 3, 8, 15, 7, 3, 3, 9, 12, 3, 14, 4, 13, 11, 4, 3, 11, 3]; % nombre de papers acceptats a cada sessio

WG = [ {1,2,3}, {4,5,6}, {7,8,9}, {10,11,12}, {}, {13,14,15}, {16}, {17}, {18}, {19,20}, {1,2,3}, {4}, {}, {}, {5,6}, {}, {}, {}, {}, {7,8}, {9}, {10}, {11}, {}, {}, {}, {12}, {13}, {14}, {15}, {}, {16}, {17,18}, {19}, {}, {}, {20,1}, {2}, {3}, {4} ]; % grups per sessio

